5,1,4,1,10,1,1,3,2,3,3,10,7,10,9,9,8,10,6,10;5,2,4,2,10,2,7,9,3,9,8,9,6,9,9,10,2,10,1,10;9,3,10,3,4,4,3,8,7,8,8,8,6,8,5,8,1,8,2,8;6,3,4,3,3,7,10,4,7,6,5,7,8,7,9,6,1,7,2,9;3,5,5,5,9,4,8,5,7,7,6,6,4,6,10,5,2,6,1,9;5,4,3,6,6,5,7,5,9,5,8,6,1,6,4,7,2,5,10,6;3,4,7,3,8,4,5,6,4,5,1,5,6,7,9,7,2,7,10,7;3,3,5,3,6,4,8,3,7,4,1,4,2,4,4,8,9,8,10,8;3,2,6,2,9,2,7,1,8,2,2,1,1,2,4,9,5,9,10,9;3,1,6,1,9,1,8,1,1,1,7,2,2,2,4,10,5,10,10,10;
